data/processed_heuristic-threshold/instances/1/9/ds_615_courier_435/pairwise.tsp
NAME: ds_615_courier_435
TYPE: TSP
COMMENT: nil
DIMENSION: 10
EDGE_WEIGHT_TYPE: EXPLICIT
EDGE_WEIGHT_FORMAT: FULL_MATRIX
EDGE_WEIGHT_SECTION
9999 962 3006 1658 989 1183 1021 899 1023 1196 
962 9999 2884 728 1003 1159 788 716 454 1035 
3006 2884 9999 2716 2048 1847 2144 2256 3334 1899 
1658 728 2716 9999 1309 1372 1043 1062 1024 1200 
989 1003 2048 1309 9999 200 266 289 1398 235 
1183 1159 1847 1372 200 9999 375 448 1572 174 
1021 788 2144 1043 266 375 9999 125 1215 251 
899 716 2256 1062 289 448 125 9999 1125 357 
1023 454 3334 1024 1398 1572 1215 1125 9999 1466 
1196 1035 1899 1200 235 174 251 357 1466 9999 
