data/processed_heuristic-threshold/instances/1/9/ds_615_courier_435/pairwise.sol
10
0 8 1 3 2 5 9 4 6 7 
